20
27
4
33
67
88
98
0 3
0 5
0 9
1 5
1 17
3 8
3 12
4 6
4 9
4 11
4 19
5 17
5 19
6 7
6 15
7 10
8 15
8 18
9 14
11 12
11 18
13 19
14 15
14 17
15 18
15 19
16 19
10 6 8 16 1
7 13 3 11 15
9 4 5 18 12
0 14 2 19 17
